(set-logic ALL)
(declare-fun var0 () String)
(assert (str.in_re var0 (re.++ (re.union (re.+ (re.+ (re.union (re.* (re.+ (re.* (re.* (re.+ (re.union (re.* (re.* (re.* (re.+ (str.to_re "000"))))) (re.* (re.* (re.+ (re.+ (str.to_re "111"))))))))))) (re.* (re.union (re.+ (re.union (re.* (re.union (re.union (re.+ (re.* (re.union (str.to_re "22") (str.to_re "33")))) (re.+ (re.+ (re.* (str.to_re "444"))))) (re.union (re.union (re.+ (re.* (str.to_re "555"))) (re.+ (re.union (str.to_re "6") (str.to_re "7")))) (re.union (re.union (re.+ (str.to_re "8")) (re.+ (str.to_re "99"))) (re.union (re.* (str.to_re "aaa")) (re.* (str.to_re "bb"))))))) (re.* (re.union (re.* (re.+ (re.+ (re.union (str.to_re "ccc") (str.to_re "ddd"))))) (re.* (re.* (re.union (re.* (str.to_re "eee")) (re.* (str.to_re "f"))))))))) (re.+ (re.union (re.+ (re.union (re.+ (re.* (re.+ (re.union (str.to_re "ggg") (str.to_re "h"))))) (re.+ (re.union (re.* (re.* (str.to_re "iii"))) (re.* (re.union (str.to_re "jj") (str.to_re "kk"))))))) (re.+ (re.union (re.union (re.union (re.union (re.+ (str.to_re "l")) (re.+ (str.to_re "m"))) (re.union (re.union (str.to_re "nnn") (str.to_re "o")) (re.union (str.to_re "ppp") (str.to_re "q")))) (re.union (re.* (re.* (str.to_re "rr"))) (re.* (re.+ (str.to_re "sss"))))) (re.union (re.+ (re.+ (re.union (str.to_re "t") (str.to_re "uu")))) (re.+ (re.union (re.union (str.to_re "vv") (str.to_re "ww")) (re.union (str.to_re "xxx") (str.to_re "y")))))))))))))) (re.+ (re.union (re.+ (re.+ (re.+ (re.* (re.union (re.* (re.+ (re.union (re.* (re.union (re.+ (str.to_re "zzz")) (re.+ (str.to_re "A")))) (re.* (re.+ (re.union (str.to_re "BBB") (str.to_re "C"))))))) (re.* (re.+ (re.* (re.union (re.union (re.union (str.to_re "DDD") (str.to_re "EEE")) (re.union (str.to_re "F") (str.to_re "GGG"))) (re.union (re.* (str.to_re "HHH")) (re.* (str.to_re "III")))))))))))) (re.+ (re.+ (re.+ (re.union (re.* (re.+ (re.* (re.* (re.union (re.union (re.union (str.to_re "J") (str.to_re "KKK")) (re.union (str.to_re "LLL") (str.to_re "M"))) (re.union (re.* (str.to_re "NNN")) (re.* (str.to_re "OO")))))))) (re.* (re.+ (re.union (re.union (re.union (re.+ (re.+ (str.to_re "PPP"))) (re.+ (re.+ (str.to_re "QQ")))) (re.union (re.* (re.+ (str.to_re "RRR"))) (re.* (re.union (str.to_re "SS") (str.to_re "T"))))) (re.union (re.+ (re.union (re.union (str.to_re "U") (str.to_re "VVV")) (re.union (str.to_re "WWW") (str.to_re "X")))) (re.+ (re.+ (re.union (str.to_re "YY") (str.to_re "Z"))))))))))))))) (re.* (re.union (re.* (re.* (re.* (re.+ (re.union (re.union (re.union (re.+ (re.+ (re.+ (re.+ (re.+ (str.to_re "!!")))))) (re.+ (re.+ (re.union (re.union (re.* (str.to_re """""")) (re.* (str.to_re "###"))) (re.union (re.union (str.to_re "$$") (str.to_re "%%%")) (re.union (str.to_re "&&") (str.to_re "'"))))))) (re.union (re.union (re.union (re.union (re.* (re.+ (str.to_re "("))) (re.* (re.* (str.to_re ")")))) (re.union (re.+ (re.* (str.to_re "**"))) (re.+ (re.+ (str.to_re "++"))))) (re.union (re.union (re.union (re.union (str.to_re ",") (str.to_re "--")) (re.union (str.to_re "..") (str.to_re "//"))) (re.union (re.* (str.to_re ":")) (re.* (str.to_re ";")))) (re.union (re.+ (re.union (str.to_re "<<<") (str.to_re "=="))) (re.+ (re.union (str.to_re ">") (str.to_re "??")))))) (re.union (re.union (re.* (re.union (re.* (str.to_re "@@@")) (re.* (str.to_re "[[")))) (re.* (re.union (re.union (str.to_re "\\\\\\") (str.to_re "]]]")) (re.union (str.to_re "^") (str.to_re "_"))))) (re.union (re.union (re.* (re.union (str.to_re "`") (str.to_re "{{{"))) (re.* (re.+ (str.to_re "||")))) (re.union (re.+ (re.union (str.to_re "}}") (str.to_re "~"))) (re.+ (re.* (str.to_re "0")))))))) (re.union (re.+ (re.union (re.union (re.union (re.+ (re.+ (str.to_re "1"))) (re.+ (re.* (str.to_re "222")))) (re.union (re.+ (re.union (str.to_re "333") (str.to_re "4"))) (re.+ (re.* (str.to_re "55"))))) (re.union (re.* (re.* (re.* (str.to_re "6")))) (re.* (re.union (re.union (str.to_re "7") (str.to_re "88")) (re.union (str.to_re "999") (str.to_re "aa"))))))) (re.+ (re.* (re.union (re.+ (re.union (re.+ (str.to_re "bb")) (re.+ (str.to_re "ccc")))) (re.+ (re.* (re.+ (str.to_re "d"))))))))))))) (re.* (re.+ (re.union (re.union (re.* (re.union (re.+ (re.+ (re.union (re.* (re.+ (re.union (str.to_re "ee") (str.to_re "fff")))) (re.* (re.+ (re.+ (str.to_re "ggg"))))))) (re.+ (re.union (re.+ (re.union (re.union (re.* (str.to_re "hhh")) (re.* (str.to_re "ii"))) (re.union (re.+ (str.to_re "j")) (re.+ (str.to_re "kkk"))))) (re.+ (re.+ (re.+ (re.* (str.to_re "lll"))))))))) (re.* (re.* (re.+ (re.union (re.* (re.union (re.* (re.union (str.to_re "mmm") (str.to_re "nnn"))) (re.* (re.+ (str.to_re "o"))))) (re.* (re.* (re.+ (re.* (str.to_re "pp")))))))))) (re.union (re.* (re.union (re.+ (re.union (re.* (re.union (re.union (re.+ (str.to_re "q")) (re.+ (str.to_re "rrr"))) (re.union (re.* (str.to_re "s")) (re.* (str.to_re "tt"))))) (re.* (re.* (re.+ (re.union (str.to_re "uu") (str.to_re "vvv"))))))) (re.+ (re.union (re.union (re.* (re.+ (re.union (str.to_re "w") (str.to_re "xxx")))) (re.* (re.union (re.+ (str.to_re "y")) (re.+ (str.to_re "z"))))) (re.union (re.+ (re.union (re.union (str.to_re "AAA") (str.to_re "B")) (re.union (str.to_re "C") (str.to_re "DDD")))) (re.+ (re.+ (re.union (str.to_re "EE") (str.to_re "FF"))))))))) (re.* (re.* (re.+ (re.* (re.+ (re.* (re.* (re.* (str.to_re "G"))))))))))))))))))
(assert (<= 15 (str.len var0)))
(check-sat)